experiment/data/lkh-res/Vrp-Set-Li-n1121/Vrp-Set-Li-n1121-lkh/0.lkh1.tour
NAME : 0.3433136.tour
COMMENT : Length = 3433136
COMMENT : Found by LKH-3 [Keld Helsgaun] Tue Apr  9 02:24:41 2024
TYPE : TOUR
DIMENSION : 1130
TOUR_SECTION
1
13
12
52
53
54
94
93
92
91
131
171
211
251
291
331
371
411
451
491
531
571
611
651
691
731
771
811
851
891
931
971
1011
1051
1091
1092
1052
1012
972
932
892
852
812
772
732
692
652
612
572
532
492
452
412
372
332
292
252
212
213
253
293
333
373
413
453
493
533
573
613
653
693
733
773
813
853
893
933
973
1013
1053
1093
1094
1054
1014
974
934
894
854
814
774
734
694
654
614
574
534
494
454
414
374
334
294
254
214
174
173
172
132
133
134
135
95
55
15
14
1130
19
18
17
16
56
57
58
98
97
96
136
137
177
176
175
215
255
295
335
375
415
455
495
535
575
615
655
695
735
775
815
855
895
935
975
1015
1055
1095
1096
1056
1016
976
936
896
856
816
776
736
696
656
616
576
536
496
456
416
376
336
296
256
216
217
257
297
337
377
417
457
497
537
577
617
657
697
737
777
817
857
897
937
977
1017
1057
1097
1098
1058
1018
978
938
898
858
818
778
738
698
658
618
578
538
498
458
418
378
338
298
258
218
178
138
139
99
59
60
20
1128
37
36
35
75
76
77
78
118
117
116
156
157
197
196
195
235
275
315
355
395
435
475
515
555
595
635
675
715
755
795
835
875
915
955
995
1035
1075
1115
1116
1076
1036
996
956
916
876
836
796
756
716
676
636
596
556
516
476
436
396
356
316
276
236
237
277
317
357
397
437
477
517
557
597
637
677
717
757
797
837
877
917
957
997
1037
1077
1117
1118
1078
1038
998
958
918
878
838
798
758
718
678
638
598
558
518
478
438
398
358
318
278
238
198
158
159
119
79
39
38
1129
29
69
109
108
107
147
148
149
189
188
187
227
267
307
347
387
427
467
507
547
587
627
667
707
747
787
827
867
907
947
987
1027
1067
1107
1108
1068
1028
988
948
908
868
828
788
748
708
668
628
588
548
508
468
428
388
348
308
268
228
229
269
309
349
389
429
469
509
549
589
629
669
709
749
789
829
869
909
949
989
1029
1069
1109
1110
1070
1030
990
950
910
870
830
790
750
710
670
630
590
550
510
470
430
390
350
310
270
230
190
150
110
70
30
1124
6
5
45
85
84
124
125
165
164
163
203
243
283
323
363
403
443
483
523
563
603
643
683
723
763
803
843
883
923
963
1003
1043
1083
1084
1044
1004
964
924
884
844
804
764
724
684
644
604
564
524
484
444
404
364
324
284
244
204
205
245
285
325
365
405
445
485
525
565
605
645
685
725
765
805
845
885
925
965
1005
1045
1085
1086
1046
1006
966
926
886
846
806
766
726
686
646
606
566
526
486
446
406
366
326
286
246
206
166
126
127
87
86
46
47
48
8
7
1123
41
2
3
4
44
43
83
123
122
161
201
162
202
242
282
322
362
402
442
482
522
562
602
642
682
722
762
802
842
882
922
962
1002
1042
1082
1121
1081
1041
1001
961
921
881
841
801
761
721
681
641
601
561
521
481
441
401
361
321
281
241
240
280
320
360
400
440
480
520
560
600
640
680
720
760
800
840
880
920
960
1000
1040
1080
1120
1119
1079
1039
999
959
919
879
839
799
759
719
679
639
599
559
519
479
439
399
359
319
279
239
199
200
160
120
121
82
42
81
80
40
1127
9
49
89
88
128
129
169
168
167
207
247
287
327
367
407
447
487
527
567
607
647
687
727
767
807
847
887
927
967
1007
1047
1087
1088
1048
1008
968
928
888
848
808
768
728
688
648
608
568
528
488
448
408
368
328
288
248
208
209
249
289
329
369
409
449
489
529
569
609
649
689
729
769
809
849
889
929
969
1009
1049
1089
1090
1050
1010
970
930
890
850
810
770
730
690
650
610
570
530
490
450
410
370
330
290
250
210
170
130
90
50
51
11
10
1126
34
74
73
113
114
115
155
154
153
193
194
234
274
314
354
394
434
474
514
554
594
634
674
714
754
794
834
874
914
954
994
1034
1074
1114
1113
1073
1033
993
953
913
873
833
793
753
713
673
633
593
553
513
473
433
393
353
313
273
233
232
272
312
352
392
432
472
512
552
592
632
672
712
752
792
832
872
912
952
992
1032
1072
1112
1111
1071
1031
991
951
911
871
831
791
751
711
671
631
591
551
511
471
431
391
351
311
271
231
191
192
152
151
111
112
72
71
31
32
33
1125
24
64
63
62
102
103
104
144
143
142
182
222
262
302
342
382
422
462
502
542
582
622
662
702
742
782
822
862
902
942
982
1022
1062
1102
1101
1061
1021
981
941
901
861
821
781
741
701
661
621
581
541
501
461
421
381
341
301
261
221
220
260
300
340
380
420
460
500
540
580
620
660
700
740
780
820
860
900
940
980
1020
1060
1100
1099
1059
1019
979
939
899
859
819
779
739
699
659
619
579
539
499
459
419
379
339
299
259
219
179
180
181
141
140
100
101
61
21
22
23
1122
27
28
68
67
66
106
146
186
226
266
306
346
386
426
466
506
546
586
626
666
706
746
786
826
866
906
946
986
1026
1066
1106
1105
1065
1025
985
945
905
865
825
785
745
705
665
625
585
545
505
465
425
385
345
305
265
225
224
264
304
344
384
424
464
504
544
584
624
664
704
744
784
824
864
904
944
984
1024
1064
1104
1103
1063
1023
983
943
903
863
823
783
743
703
663
623
583
543
503
463
423
383
343
303
263
223
183
184
185
145
105
65
25
26
-1
EOF
